c --- [ banner ] -------------------------------------------------------------
c 
c CaDiCaL Radically Simplified CDCL SAT Solver
c Copyright (c) 2016-2021 A. Biere, M. Fleury, N. Froleyks
c 
c Version 1.5.2 a5f15211db36c3956764e18194dd5bd63bf3b5e6
c g++ (GCC) 9.3.0 -Wall -Wextra -O3 -DNDEBUG
c Fri Oct 21 01:27:37 EDT 2022 Linux gra-login3 3.10.0-1160.66.1.el7.x86_64 x86_64
c 
c --- [ limit ] --------------------------------------------------------------
c 
c setting conflict limit to 200000 conflicts (due to '200000')
c 
c --- [ parsing input ] ------------------------------------------------------
c 
c reading DIMACS file from '33.cubes7205.adj'
c opening file to read '33.cubes7205.adj'
c found 'p cnf 6160 1595480' header
c parsed 1595480 clauses in 20.28 seconds process time
c closing file '33.cubes7205.adj'
c after reading 1457566809 bytes 1390.0 MB
c 
c --- [ options ] ------------------------------------------------------------
c 
c all options are set to their default value
c 
c --- [ solving ] ------------------------------------------------------------
c 
c time measured in process time since initialization
c 
c  seconds    reductions  redundant   irredundant
c          MB     restarts       trail       variables
c            level   conflicts       glue         remaining
c 
c * 20.28 1381  0 0   0    0    0  0% 0 1595422 2352 38%
c { 21.38 1430  0 0   0    0    0  0% 0 1595422 2352 38%
c i 22.32 1465 1309 0   0   17   16 45% 7 1595422 2345 38%
c i 23.17 1482 1188 0   1   43   40 46% 8 1595422 2328 38%
c i 25.73 1513 557 0  11   99   85 35% 22 1595422 2326 38%
c i 26.65 1520 468 0  17  125  107 34% 28 1595422 2314 38%
c i 27.03 1522 455 0  19  131  111 33% 28 1595422 2312 38%
c i 27.24 1522 399 0  25  153  121 31% 26 1595422 2311 38%
c i 28.52 1525 263 0  27  267  212 30% 24 1595422 2310 38%
c i 28.58 1525 260 0  27  270  214 30% 24 1595422 2309 37%
c - 32.66 1478 237 1  27  300  244 30% 24 408448 2309 37%
c i 33.25 1440 226 1  31  323  265 30% 25 408448 2308 37%
c i 33.26 1440 226 1  31  324  265 30% 25 408448 2307 37%
c i 33.26 1440 225 1  32  326  266 30% 25 408448 2306 37%
c i 33.86 1441 205 1  44  375  309 30% 28 408448 2305 37%
c i 34.18 1441 199 1  49  396  328 29% 28 408448 2304 37%
c i 34.18 1441 199 1  49  397  328 29% 27 408448 2303 37%
c i 34.19 1441 198 1  50  398  328 29% 27 408448 2302 37%
c i 34.19 1441 198 1  50  400  329 29% 27 408448 2301 37%
c i 34.84 1441 189 1  55  442  365 29% 27 408448 2289 37%
c 
c  seconds     reductions  redundant   irredundant
c          MB      restarts       trail       variables
c             level   conflicts       glue         remaining
c 
c i 35.27 1442 169 1  58  508  415 29% 27 408448 2288 37%
c i 36.83 1443 162 1  73  580  480 29% 30 408448 2287 37%
c i 36.94 1443 162 1  76  591  490 29% 31 408448 2286 37%
c i 37.20 1443 161 1  82  615  510 29% 32 408448 2283 37%
c i 37.34 1443 159 1  85  627  520 29% 32 408448 2282 37%
c i 37.60 1443 155 1  88  653  541 29% 32 408448 2281 37%
c i 37.84 1443 144 1  96  726  599 29% 32 408448 2280 37%
c i 37.86 1443 140 1  96  754  620 29% 32 408448 2279 37%
c i 37.93 1443 123 1  96  888  721 29% 30 408448 2278 37%
c } 37.98 1443 112 1  96 1000  796 29% 30 408448 2278 37%
c [ 37.98 1443  0 1  96 1000  796  0% 0 408448 2278 37%
c O 37.99 1443 23 1  96 1004  800 27% 22 408448 2278 37%
c i 38.49 1443 20 1  96 1168  946 34% 16 408448 2277 37%
c - 39.31 1588 21 2  96 1266  919 34% 17 333260 2277 37%
c i 39.37 1588 20 2  96 1269  921 34% 17 333260 2276 37%
c i 39.40 1588 20 2  96 1272  921 34% 17 333260 2275 37%
c i 39.51 1588 21 2  96 1311  936 34% 18 333260 2274 37%
c i 39.53 1588 21 2  96 1326  941 34% 18 333260 2273 37%
c i 39.55 1588 21 2  96 1343  949 34% 18 333260 2272 37%
c i 39.61 1588 21 2  96 1392  975 33% 18 333260 2271 37%
c 
c  seconds    reductions  redundant   irredundant
c          MB     restarts       trail       variables
c            level   conflicts       glue         remaining
c 
c i 39.65 1588 22 2  96 1451 1007 33% 19 333260 2270 37%
c i 39.68 1588 22 2  96 1467 1015 33% 19 333260 2269 37%
c i 40.44 1588 24 2  97 2411 1634 32% 21 333260 2268 37%
c i 40.51 1588 24 2  97 2443 1657 32% 20 333260 2267 37%
c i 40.51 1588 24 2  97 2444 1657 32% 20 333260 2266 37%
c - 41.21 1544 24 3  97 2636 1258 32% 20 333227 2266 37%
c i 42.12 1511 23 3  97 2914 1471 53% 20 333227 2265 37%
c ] 42.30 1511 23 3  97 3005 1540 53% 19 333227 2265 37%
c { 42.30 1511 112 3  97 3005 1540 80% 30 333227 2265 37%
c F 42.36 1511 112 3  97 3006 1541 80% 30 333227 2265 37%
c i 42.48 1511 111 3  97 3012 1546 80% 30 333227 2264 37%
c i 42.52 1511 111 3  97 3021 1550 79% 30 333227 2263 37%
c i 43.04 1511 104 3 101 3150 1653 76% 29 333227 2262 37%
c i 43.15 1511 102 3 101 3191 1686 75% 29 333227 2261 37%
c i 43.83 1511 97 3 112 3332 1802 72% 30 333227 2260 37%
c i 44.08 1511 96 3 114 3361 1828 71% 30 333227 2259 37%
c i 44.82 1511 93 3 119 3479 1934 69% 29 333227 2258 37%
c i 46.42 1511 91 3 147 3671 2106 66% 30 333227 2257 37%
c i 47.05 1511 89 3 162 3779 2198 65% 30 333227 2256 37%
c i 47.08 1511 88 3 162 3801 2218 65% 30 333227 2255 37%
c 
c  seconds    reductions  redundant   irredundant
c          MB     restarts       trail       variables
c            level   conflicts       glue         remaining
c 
c i 47.70 1511 85 3 166 3926 2330 63% 30 333227 2254 37%
c i 47.82 1511 83 3 166 3998 2380 62% 30 333227 2253 37%
c i 48.23 1511 79 3 169 4162 2513 61% 29 333227 2252 37%
c i 49.49 1511 75 3 176 4425 2736 59% 29 333227 2251 37%
c - 50.68 1506 75 4 185 4463 2085 59% 29 333182 2251 37%
c d 56.86 1506 74 4 286 5000 2527 56% 31 333166 2243 36%
c 2 56.95 1506 74 4 286 5000 3602 56% 31 333166 2243 36%
c p 65.74 1506 74 4 286 5000 6272 56% 31 333166 2191 36%
c d 66.28 1506 74 4 286 5000 6212 56% 31 332811 2189 36%
c # 67.86 1506 62 4 295 6010 6951 53% 28 332811 2189 36%
c - 69.54 1501 56 5 295 6749 2880 52% 26 332811 2189 36%
c } 70.03 1501 54 5 295 7005 3039 52% 25 332811 2189 36%
c [ 70.03 1501 23 5 295 7005 3039 53% 19 332811 2189 36%
c - 72.04 1370 20 6 297 9488 2914 48% 17 332811 2189 36%
c I 72.66 1370 19 6 297 10014 3135 48% 16 332811 2189 36%
c - 76.49 1370 21 7 299 12684 3673 47% 17 332811 2189 36%
c p 83.91 1371 23 7 300 15002 9211 47% 19 332811 2188 36%
c ] 84.12 1371 23 7 300 15007 9216 47% 19 332811 2188 36%
c { 84.12 1371 54 7 300 15007 9216 52% 25 332811 2188 36%
c B 84.20 1371 54 7 300 15015 9222 52% 25 332811 2188 36%
c 
c  seconds    reductions   redundant   irredundant
c          MB     restarts        trail       variables
c            level    conflicts       glue         remaining
c 
c - 86.31 1372 47 8 316 16338 4386 51% 24 332808 2188 36%
c s 90.30 1372 42 8 428 18812 5900 51% 24 331358 2188 36%
c v 97.43 1372 42 8 428 18812 5900 51% 24 331322 2188 36%
c t 97.55 1372 42 8 428 18812 5892 51% 24 331316 2188 36%
c e 98.95 1376 42 8 428 18812 5518 51% 24 328650 822 13%
c s 99.07 1376 42 8 428 18812 5518 51% 24 328322 822 13%
c - 106.78 1376 42 9 556 20450 5022 73% 24 328322 822 13%
c W 107.33 1376 41 9 556 21018 5418 75% 24 328322 822 13%
c - 115.51 1376 35 10 619 24999 5516 75% 21 328322 822 13%
c F 122.32 1376 34 10 759 28019 7625 74% 21 328322 822 13%
c - 129.87 1376 34 11 920 30002 6357 74% 22 328322 822 13%
c p 132.57 1376 34 11 920 30002 8366 74% 22 328322 822 13%
c } 135.60 1376 33 11 958 31009 9100 74% 21 328322 822 13%
c [ 135.60 1376 23 11 958 31009 9100 129% 19 328322 822 13%
c - 138.93 1376 22 12 960 35460 6649 110% 19 328322 822 13%
c B 139.36 1376 22 12 961 36025 6966 108% 19 328322 822 13%
c ] 139.47 1376 22 12 961 36303 7200 108% 19 328322 822 13%
c 1 139.47 1376 22 12 961 36303 7200 108% 19 328322 822 13%
c 
c --- [ writing output ] -----------------------------------------------------
c 
c writing simplified CNF to DIMACS file 'simp/33.cubes7205.adj.simp1'
c * 139.47 1376 22 12 961 36303 7200 108% 19 328322 822 13%
c opening file to write 'simp/33.cubes7205.adj.simp1'
c writing 'p cnf 6160 328322' header
c closing file 'simp/33.cubes7205.adj.simp1'
c after writing 152944634 bytes 145.9 MB
c wrote 328322 clauses in 1.11 seconds process time
c 
c --- [ writing extension ] --------------------------------------------------
c 
c writing extension stack to 'simp/33.cubes7205.adj.ext1'
c opening file to write 'simp/33.cubes7205.adj.ext1'
c closing file 'simp/33.cubes7205.adj.ext1'
c after writing 88673 bytes 0.1 MB
c wrote 3962 witnesses in 0.00 seconds process time
c 
c --- [ result ] -------------------------------------------------------------
c 
s SATISFIABLE
c 
c --- [ run-time profiling ] -------------------------------------------------
c 
c process time taken by individual solving procedures
c (percentage relative to process time for solving)
c 
c        90.60   76.01% search
c        72.75   61.04% unstable
c        28.59   23.99% simplify
c        20.28   17.02% parse
c        17.08   14.33% probe
c        16.49   13.84% stable
c         7.20    6.04% vivify
c         2.64    2.22% elim
c         1.10    0.92% lucky
c         0.26    0.21% walk
c         0.25    0.21% subsume
c         0.16    0.14% ternary
c   =================================
c       119.19   84.78% solve
c 
c last line shows process time for solving
c (percentage relative to total process time)
c 
c --- [ statistics ] ---------------------------------------------------------
c 
c chronological:              7045        19.41 %  of conflicts
c conflicts:                 36303       304.58    per second
c decisions:                104845       879.65    per second
c eliminated:                 1366        22.18 %  of all variables
c fixed:                       818        13.28 %  of all variables
c learned:                   35455        97.66 %  per conflict
c learned_lits:            6454441       100.00 %  learned literals
c minimized:                     0         0.00 %  learned literals
c shrunken:                4032725        62.48 %  learned literals
c minishrunken:             500593         7.76 %  learned literals
c propagations:            3782653         0.03 M  per second
c reduced:                   17035        46.92 %  per conflict
c rephased:                      8      4537.88    interval
c restarts:                    961        37.78    interval
c stabilizing:                   3        42.15 %  of conflicts
c substituted:                  10         0.16 %  of all variables
c subsumed:                  12826         0.38 %  of all clauses
c strengthened:               4646         0.14 %  of all clauses
c ternary:                    2711         0.62 %  of resolved
c vivified:                     55         0.00 %  of all clauses
c walked:                        1     36303.00    interval
c weakened:                   3144         3.00    average size
c 
c seconds are measured in process time for solving
c 
c --- [ resources ] ----------------------------------------------------------
c 
c total process time since initialization:       140.58    seconds
c total real time since initialization:          166.33    seconds
c maximum resident set size of process:         1730.25    MB
c 
c --- [ shutting down ] ------------------------------------------------------
c 
c exit 10
WARNING! DIMACS header mismatch: wrong number of variables.
============================[ Problem Statistics ]=============================
|                                                                             |
|  Number of variables:          6111                                         |
|  Number of clauses:          328322                                         |
|  Parse time:                   2.01 s                                       |
|  Simplification time:          0.05 s                                       |
|                                                                             |
============================[ Search Statistics ]====================================================
| Conflicts |          ORIGINAL         |          LEARNT          | Num Sols |      SUBGRAPHS      |
|           |    Vars  Clauses Literals |    Limit  Clauses Lit/Cl |          | Canonical Noncanon. |
=====================================================================================================
|       107 |    6017   328329 32926323 |     2000      107    206 |        0 |        12         7 |
|       260 |    6017   328332 32926458 |     2000      260    141 |        0 |        30        10 |
|       487 |    6017   328334 32926527 |     2000      487    126 |        0 |        37        12 |
|       827 |    6017   328337 32926621 |     2000      827    111 |        0 |        42        15 |
|      1347 |    6017   328351 32927125 |     2000     1347    112 |        0 |        46        29 |
|      2110 |    6017   328355 32927171 |     3603     1113     70 |        0 |        63        33 |
|      3261 |    6017   328367 32927477 |     3603     2264     82 |        0 |        87        45 |
|      5198 |    6017   328596 32932241 |     5002     2400     64 |        0 |       199       274 |
|      7906 |    6017   328742 32935141 |     6306     2612     43 |        0 |       257       420 |
|     11917 |    6017   328909 32939522 |     7559     3476     42 |        0 |       312       587 |
|     17765 |    6017   328991 32942107 |     8789     5554     56 |        0 |       335       669 |
|     26811 |    6017   329388 32949757 |    11206     5217     31 |        0 |       542      1066 |
|     41523 |    6017   331126 32983984 |    13611     8134     46 |        0 |      1220      2804 |
|     75144 |    6017   345286 33251599 |    18405    10949     37 |        0 |      4916     16964 |
|    116693 |    6017   357643 33483357 |    23213    12106     23 |        0 |      8250     29321 |
|    171440 |    6017   368601 33681960 |    28010    16850     36 |        0 |     10558     40279 |
|    264615 |    6017   396092 34173875 |    35222    17037     16 |        1 |     20089     67769 |
|    382054 |    6017   415005 34502701 |    41224    40478     63 |        1 |     23524     86682 |
|    562296 |    6017   447458 34907388 |    50821    39117     53 |        3 |     30540    119133 |
|    803779 |    6017   467258 35228740 |    61612    30391     15 |        3 |     34195    138933 |
|   1170834 |    6017   501788 35808296 |    73615    62449     57 |        3 |     40629    173463 |
|   1748655 |    6017   580821 37210887 |    90433    70488     49 |        3 |     56278    252496 |
|   2552443 |    6017   636427 38145959 |   109621    79064     39 |        3 |     64875    308102 |
|   3810833 |    6016   772540 40440990 |   133612   127445     61 |        3 |     81675    444218 |
=====================================================================================================
Number of solutions   : 3
Canonical subgraphs   : 87785          (19 /sec)
          order  3    : 1              (166667 /sec)
          order  4    : 1              (500000 /sec)
          order  5    : 1              (250000 /sec)
          order  6    : 1              (55556 /sec)
          order  7    : 1              (7937 /sec)
          order  8    : 2              (1363 /sec)
          order  9    : 6              (315 /sec)
          order 10    : 23             (90 /sec)
          order 11    : 99             (29 /sec)
          order 12    : 604            (15 /sec)
          order 13    : 3797           (16 /sec)
          order 14    : 23312          (22 /sec)
          order 15    : 52127          (19 /sec)
          order 16    : 5195           (15 /sec)
          order 17    : 2042           (13 /sec)
          order 18    : 367            (11 /sec)
          order 19    : 120            (12 /sec)
          order 20    : 38             (12 /sec)
          order 21    : 45             (13 /sec)
          order 22    : 3              (1 /sec)
Noncanonical subgraphs: 483346         (141 /sec)
          order  3    : 0              (-nan /sec)
          order  4    : 0              (-nan /sec)
          order  5    : 0              (-nan /sec)
          order  6    : 0              (-nan /sec)
          order  7    : 0              (-nan /sec)
          order  8    : 0              (-nan /sec)
          order  9    : 0              (-nan /sec)
          order 10    : 0              (-nan /sec)
          order 11    : 0              (-nan /sec)
          order 12    : 0              (-nan /sec)
          order 13    : 8687           (6321 /sec)
          order 14    : 101613         (844 /sec)
          order 15    : 45742          (1354 /sec)
          order 16    : 322679         (101 /sec)
          order 17    : 4264           (101 /sec)
          order 18    : 312            (52 /sec)
          order 19    : 4              (100 /sec)
          order 20    : 0              (-nan /sec)
          order 21    : 0              (-nan /sec)
Canonicity checking   : 4659.07 s
Noncanonicity checking: 3419.7 s
Total canonicity time : 8078.77 s
database reductions   : 126
restarts              : 8191
conflicts             : 5035193        (467 /sec)
decisions             : 6789435        (0.00 % random) (630 /sec)
propagations          : 210262791      (19507 /sec)
conflict literals     : 532209412      (53.28 % deleted)
actual reward         : 0.286932
Memory used           : 631.00 MB
CPU time              : 10778.6 s

UNSATISFIABLE
